40
1 0 5
2 0 7
2 1 3
3 0 11
3 1 5
3 2 9
4 0 14
4 1 1
4 2 4
4 3 1
5 0 13
5 1 14
5 2 3
5 3 9
5 4 7
6 0 3
6 1 2
6 2 4
6 3 3
6 4 11
6 5 9
7 0 13
7 1 9
7 2 8
7 3 10
7 4 14
7 5 7
7 6 12
8 0 9
8 1 12
8 2 6
8 3 1
8 4 6
8 5 4
8 6 7
8 7 4
9 0 1
9 1 2
9 2 2
9 3 6
9 4 1
9 5 9
9 6 12
9 7 2
9 8 1
10 0 4
10 1 12
10 2 13
10 3 1
10 4 7
10 5 8
10 6 14
10 7 12
10 8 2
10 9 7
11 0 1
11 1 4
11 2 8
11 3 1
11 4 6
11 5 13
11 6 6
11 7 7
11 8 5
11 9 12
11 10 1
12 0 6
12 1 13
12 2 14
12 3 2
12 4 1
12 5 5
12 6 9
12 7 14
12 8 11
12 9 13
12 10 14
12 11 14
13 0 14
13 1 2
13 2 14
13 3 1
13 4 9
13 5 12
13 6 14
13 7 7
13 8 13
13 9 12
13 10 11
13 11 1
13 12 9
14 0 13
14 1 14
14 2 3
14 3 9
14 4 2
14 5 13
14 6 3
14 7 6
14 8 5
14 9 9
14 10 1
14 11 1
14 12 8
14 13 3
15 0 2
15 1 8
15 2 11
15 3 3
15 4 1
15 5 10
15 6 8
15 7 6
15 8 1
15 9 3
15 10 9
15 11 1
15 12 6
15 13 6
15 14 9
16 0 13
16 1 9
16 2 3
16 3 9
16 4 5
16 5 8
16 6 4
16 7 6
16 8 10
16 9 3
16 10 13
16 11 10
16 12 7
16 13 11
16 14 10
16 15 5
17 0 6
17 1 14
17 2 11
17 3 10
17 4 1
17 5 14
17 6 9
17 7 5
17 8 2
17 9 14
17 10 5
17 11 2
17 12 10
17 13 7
17 14 10
17 15 10
17 16 7
18 0 1
18 1 2
18 2 10
18 3 14
18 4 7
18 5 5
18 6 1
18 7 12
18 8 6
18 9 2
18 10 6
18 11 11
18 12 10
18 13 9
18 14 8
18 15 1
18 16 3
18 17 14
19 0 12
19 1 1
19 2 10
19 3 1
19 4 4
19 5 12
19 6 1
19 7 4
19 8 7
19 9 9
19 10 5
19 11 5
19 12 12
19 13 10
19 14 4
19 15 10
19 16 2
19 17 7
19 18 1
20 0 3
20 1 6
20 2 3
20 3 9
20 4 9
20 5 8
20 6 5
20 7 2
20 8 7
20 9 8
20 10 2
20 11 9
20 12 11
20 13 6
20 14 2
20 15 10
20 16 4
20 17 13
20 18 11
20 19 4
21 0 1
21 1 11
21 2 4
21 3 1
21 4 9
21 5 13
21 6 14
21 7 3
21 8 2
21 9 5
21 10 14
21 11 6
21 12 2
21 13 9
21 14 9
21 15 12
21 16 5
21 17 13
21 18 13
21 19 2
21 20 1
22 0 13
22 1 12
22 2 1
22 3 2
22 4 13
22 5 9
22 6 1
22 7 7
22 8 9
22 9 6
22 10 8
22 11 13
22 12 8
22 13 7
22 14 1
22 15 14
22 16 6
22 17 12
22 18 1
22 19 10
22 20 14
22 21 7
23 0 14
23 1 1
23 2 1
23 3 6
23 4 10
23 5 6
23 6 2
23 7 2
23 8 11
23 9 4
23 10 14
23 11 12
23 12 12
23 13 4
23 14 4
23 15 10
23 16 12
23 17 6
23 18 2
23 19 2
23 20 14
23 21 7
23 22 8
24 0 4
24 1 8
24 2 13
24 3 4
24 4 3
24 5 5
24 6 10
24 7 4
24 8 1
24 9 9
24 10 6
24 11 14
24 12 1
24 13 7
24 14 1
24 15 13
24 16 14
24 17 9
24 18 14
24 19 6
24 20 7
24 21 9
24 22 1
24 23 14
25 0 2
25 1 14
25 2 13
25 3 1
25 4 11
25 5 12
25 6 12
25 7 9
25 8 3
25 9 5
25 10 3
25 11 5
25 12 1
25 13 3
25 14 4
25 15 2
25 16 11
25 17 10
25 18 6
25 19 2
25 20 1
25 21 6
25 22 13
25 23 5
25 24 8
26 0 4
26 1 3
26 2 4
26 3 12
26 4 12
26 5 14
26 6 5
26 7 12
26 8 9
26 9 8
26 10 8
26 11 6
26 12 14
26 13 9
26 14 11
26 15 8
26 16 6
26 17 2
26 18 4
26 19 7
26 20 9
26 21 9
26 22 3
26 23 3
26 24 6
26 25 14
27 0 11
27 1 3
27 2 9
27 3 12
27 4 8
27 5 7
27 6 2
27 7 14
27 8 13
27 9 13
27 10 8
27 11 9
27 12 8
27 13 11
27 14 4
27 15 6
27 16 7
27 17 14
27 18 10
27 19 5
27 20 10
27 21 4
27 22 11
27 23 9
27 24 14
27 25 12
27 26 4
28 0 1
28 1 3
28 2 3
28 3 13
28 4 4
28 5 7
28 6 8
28 7 7
28 8 8
28 9 6
28 10 2
28 11 1
28 12 5
28 13 9
28 14 10
28 15 1
28 16 4
28 17 11
28 18 4
28 19 12
28 20 11
28 21 2
28 22 12
28 23 3
28 24 5
28 25 6
28 26 4
28 27 8
29 0 5
29 1 6
29 2 12
29 3 14
29 4 5
29 5 12
29 6 5
29 7 3
29 8 6
29 9 1
29 10 1
29 11 8
29 12 6
29 13 7
29 14 7
29 15 14
29 16 4
29 17 5
29 18 10
29 19 6
29 20 11
29 21 6
29 22 14
29 23 14
29 24 7
29 25 11
29 26 7
29 27 6
29 28 5
30 0 12
30 1 11
30 2 7
30 3 13
30 4 3
30 5 12
30 6 10
30 7 10
30 8 5
30 9 13
30 10 10
30 11 2
30 12 13
30 13 1
30 14 2
30 15 11
30 16 14
30 17 7
30 18 10
30 19 1
30 20 14
30 21 7
30 22 4
30 23 14
30 24 5
30 25 6
30 26 1
30 27 1
30 28 11
30 29 6
31 0 6
31 1 12
31 2 11
31 3 13
31 4 12
31 5 13
31 6 1
31 7 11
31 8 11
31 9 2
31 10 3
31 11 4
31 12 1
31 13 5
31 14 9
31 15 1
31 16 13
31 17 13
31 18 5
31 19 6
31 20 1
31 21 7
31 22 10
31 23 5
31 24 6
31 25 8
31 26 13
31 27 5
31 28 4
31 29 13
31 30 8
32 0 4
32 1 7
32 2 5
32 3 1
32 4 9
32 5 9
32 6 7
32 7 14
32 8 11
32 9 14
32 10 3
32 11 8
32 12 9
32 13 7
32 14 1
32 15 2
32 16 5
32 17 6
32 18 9
32 19 14
32 20 5
32 21 7
32 22 12
32 23 12
32 24 5
32 25 7
32 26 6
32 27 2
32 28 1
32 29 3
32 30 3
32 31 13
33 0 2
33 1 3
33 2 5
33 3 12
33 4 1
33 5 9
33 6 11
33 7 4
33 8 8
33 9 11
33 10 11
33 11 6
33 12 10
33 13 13
33 14 10
33 15 8
33 16 11
33 17 4
33 18 13
33 19 9
33 20 4
33 21 9
33 22 4
33 23 3
33 24 4
33 25 9
33 26 11
33 27 11
33 28 7
33 29 5
33 30 9
33 31 1
33 32 10
34 0 12
34 1 7
34 2 8
34 3 7
34 4 10
34 5 12
34 6 13
34 7 6
34 8 8
34 9 10
34 10 8
34 11 4
34 12 14
34 13 12
34 14 13
34 15 1
34 16 14
34 17 6
34 18 8
34 19 4
34 20 12
34 21 8
34 22 4
34 23 13
34 24 1
34 25 5
34 26 12
34 27 1
34 28 13
34 29 12
34 30 14
34 31 2
34 32 4
34 33 1
35 0 4
35 1 10
35 2 2
35 3 2
35 4 4
35 5 11
35 6 7
35 7 2
35 8 12
35 9 2
35 10 8
35 11 2
35 12 8
35 13 14
35 14 6
35 15 4
35 16 7
35 17 9
35 18 6
35 19 10
35 20 3
35 21 6
35 22 12
35 23 5
35 24 3
35 25 4
35 26 6
35 27 2
35 28 6
35 29 9
35 30 1
35 31 8
35 32 9
35 33 12
35 34 4
36 0 4
36 1 12
36 2 9
36 3 1
36 4 9
36 5 7
36 6 4
36 7 5
36 8 9
36 9 1
36 10 6
36 11 14
36 12 12
36 13 2
36 14 14
36 15 4
36 16 12
36 17 2
36 18 2
36 19 7
36 20 14
36 21 4
36 22 8
36 23 5
36 24 4
36 25 13
36 26 3
36 27 14
36 28 7
36 29 2
36 30 14
36 31 2
36 32 9
36 33 13
36 34 10
36 35 12
37 0 8
37 1 1
37 2 1
37 3 9
37 4 8
37 5 11
37 6 8
37 7 7
37 8 3
37 9 14
37 10 7
37 11 9
37 12 9
37 13 3
37 14 13
37 15 9
37 16 2
37 17 11
37 18 9
37 19 13
37 20 13
37 21 5
37 22 5
37 23 11
37 24 12
37 25 5
37 26 12
37 27 5
37 28 1
37 29 1
37 30 7
37 31 1
37 32 10
37 33 8
37 34 6
37 35 14
37 36 2
38 0 5
38 1 4
38 2 7
38 3 12
38 4 9
38 5 2
38 6 13
38 7 13
38 8 11
38 9 3
38 10 11
38 11 1
38 12 3
38 13 7
38 14 6
38 15 8
38 16 9
38 17 5
38 18 10
38 19 1
38 20 1
38 21 6
38 22 6
38 23 6
38 24 14
38 25 4
38 26 4
38 27 2
38 28 10
38 29 12
38 30 9
38 31 12
38 32 11
38 33 11
38 34 7
38 35 4
38 36 13
38 37 7
39 0 14
39 1 7
39 2 9
39 3 7
39 4 7
39 5 14
39 6 8
39 7 10
39 8 4
39 9 14
39 10 6
39 11 8
39 12 4
39 13 5
39 14 3
39 15 8
39 16 11
39 17 6
39 18 2
39 19 13
39 20 2
39 21 11
39 22 4
39 23 12
39 24 9
39 25 8
39 26 8
39 27 4
39 28 14
39 29 13
39 30 2
39 31 6
39 32 2
39 33 12
39 34 1
39 35 12
39 36 13
39 37 12
39 38 2
